grafoforadeordem.lp
min:4x25 4x13 6x12 1x14 4x46 3x63 4x31 3x43 1x35 1x41 9x76 4x75 3x36 4x52 1x53 9x67 4x64 3x34 4x57 6x21 ;
 -x12  x21  -x13  x31  -x14  x41 = -10;
 -x21  x12  -x25  x52 = 0;
 -x31  x13  -x34  x43  -x35  x53  -x36  x63 = 0;
 -x41  x14  -x43  x34  -x46  x64 = 0;
 -x52  x25  -x53  x35  -x57  x75 = 0;
 -x63  x36  -x64  x46  -x67  x76 = 0;
 -x75  x57  -x76  x67 = 10;

