grafoforadeordem.txt
7 10 
1 7 10
3 4 3
1 3 4
1 4 1
6 7 9
2 5 4
3 5 1
3 6 3
4 6 4
1 2 6
5 7 4